5617.56
85 170 170 85 107 85 170 170 107 107 170 107 170 85 170 170 170 107 170 85 170 170 170 85 170 170 107 107 170 170 85 170 170 170 107 170 170 170 107 85 107 170 170 170 85 170 170 170 170 170 170 170 107 107 170 85 170 37 170 170 107 170 85 170 170 30 172 85 170 170 170 30 170 170 107 107 107 170 170 170 30 107 107 170 170 85 85 194 85 170 172 170 107 170 107 170 59 170 85 107 170 30 107 107 107 107 170 107 170 107 170 170 170 170 170 170 107 107 170 107 107 170 170 170 170 85 37 170 170 107 170 170 170 170 170 107 85 170 170 85 170 170 170 107 170 170 170 170 85 107 107 170 85 30 85 170 170 170 170 107 170 170 170 170 170 85 107 170 170 170 85 85 170 170 85 170 194 30 170 170 170 85 85 170 170 85 107 107 170 107 170 107 107 107 170 170 85 170 85 170 
